8       2       
3       3       
0       0       0       1       2       
2       0       3       2       3       5       
4       1       2       1       4       
2       2       0       2       6       7       
8       1       0       1       7       
4       3       0       1       8       
4       1       2       1       8       
0       0       0       0       
